h=7;
w=7;
left=[5, 2, 2, 0, 0, 0, 0];
right=[2, 4, 3, 0, 0, 0, 0];
top=[4, 4, 0, 0, 0, 0, 0];
down=[2, 0, 4, 2, 0, 0, 0];
b=[|0,2,4,6,3,0,5|5,0,0,0,6,3,2|6,1,2,7,0,5,3|3,6,1,2,5,0,0|7,5,6,3,2,1,4|0,0,0,0,0,0,0|4,7,3,5,0,2,6|]